(declare-fun var0 () String)
(declare-fun var1 () String)
(declare-fun var2 () String)
(declare-fun var3 () String)
(declare-fun var4 () String)
(declare-fun var5 () String)
(declare-fun var6 () String)
(declare-fun var7 () String)
(declare-fun var8 () String)
(declare-fun var9 () String)
(declare-fun var10 () String)
(declare-fun var11 () String)
(declare-fun var12 () String)
(declare-fun var13 () String)
(declare-fun var14 () String)
(declare-fun var15 () String)
(declare-fun var16 () String)
(declare-fun var17 () String)
(declare-fun var18 () String)
(declare-fun var19 () String)
(declare-fun var20 () String)
(declare-fun var21 () String)
(declare-fun var22 () String)
(declare-fun var23 () String)
(declare-fun var24 () String)
(declare-fun var25 () String)
(declare-fun var26 () String)
(declare-fun var27 () String)
(declare-fun var28 () String)
(declare-fun var29 () String)
(declare-fun var30 () String)
(declare-fun var31 () String)
(declare-fun var32 () String)
(declare-fun var33 () String)
(declare-fun var34 () String)
(declare-fun var35 () String)
(declare-fun var36 () String)
(declare-fun var37 () String)
(declare-fun var38 () String)
(declare-fun var39 () String)
(declare-fun var40 () String)
(declare-fun var41 () String)
(declare-fun var42 () String)
(declare-fun var43 () String)
(declare-fun var44 () String)
(declare-fun var45 () String)
(declare-fun var46 () String)
(declare-fun var47 () String)
(declare-fun var48 () String)
(declare-fun var49 () String)
(declare-fun var50 () String)
(declare-fun var51 () String)
(declare-fun var52 () String)
(declare-fun var53 () String)
(declare-fun var54 () String)
(declare-fun var55 () String)
(declare-fun var56 () String)
(declare-fun var57 () String)
(declare-fun var58 () String)
(declare-fun var59 () String)
(declare-fun var60 () String)
(declare-fun var61 () String)
(declare-fun var62 () String)
(declare-fun var63 () String)
(declare-fun var64 () String)
(declare-fun var65 () String)
(declare-fun var66 () String)
(declare-fun var67 () String)
(declare-fun var68 () String)
(declare-fun var69 () String)
(declare-fun var70 () String)
(declare-fun var71 () String)
(declare-fun var72 () String)
(declare-fun var73 () String)
(declare-fun var74 () String)
(declare-fun var75 () String)
(declare-fun var76 () String)
(declare-fun var77 () String)
(declare-fun var78 () String)
(declare-fun var79 () String)
(declare-fun var80 () String)
(declare-fun var81 () String)
(declare-fun var82 () String)
(declare-fun var83 () String)
(declare-fun var84 () String)
(declare-fun var85 () String)
(declare-fun var86 () String)
(declare-fun var87 () String)
(declare-fun var88 () String)
(declare-fun var89 () String)
(declare-fun var90 () String)
(declare-fun var91 () String)
(declare-fun var92 () String)
(declare-fun var93 () String)
(declare-fun var94 () String)
(declare-fun var95 () String)
(declare-fun var96 () String)
(declare-fun var97 () String)
(declare-fun var98 () String)
(declare-fun var99 () String)
(declare-fun var100 () String)
(declare-fun var101 () String)
(declare-fun var102 () String)
(declare-fun var103 () String)
(declare-fun var104 () String)
(declare-fun var105 () String)
(declare-fun var106 () String)
(declare-fun var107 () String)
(declare-fun var108 () String)
(declare-fun var109 () String)
(assert (= 41 (Length var0)))
(assert (= 3 (Length var1)))
(assert (= 81 (Length var2)))
(assert (= 31 (Length var3)))
(assert (= 25 (Length var4)))
(assert (= 44 (Length var5)))
(assert (= 87 (Length var6)))
(assert (= 71 (Length var7)))
(assert (= 1 (Length var8)))
(assert (= 16 (Length var9)))
(assert (= 68 (Length var10)))
(assert (= 96 (Length var11)))
(assert (= 12 (Length var12)))
(assert (= 90 (Length var13)))
(assert (= 34 (Length var14)))
(assert (= 63 (Length var15)))
(assert (= 91 (Length var16)))
(assert (= 60 (Length var17)))
(assert (= 53 (Length var18)))
(assert (= 88 (Length var19)))
(assert (= 15 (Length var20)))
(assert (= 17 (Length var21)))
(assert (= 89 (Length var22)))
(assert (= 38 (Length var23)))
(assert (= 65 (Length var24)))
(assert (= 28 (Length var25)))
(assert (= 32 (Length var26)))
(assert (= 17 (Length var27)))
(assert (= 35 (Length var28)))
(assert (= 33 (Length var29)))
(assert (= 76 (Length var30)))
(assert (= 19 (Length var31)))
(assert (= 22 (Length var32)))
(assert (= 44 (Length var33)))
(assert (= 87 (Length var34)))
(assert (= 39 (Length var35)))
(assert (= 55 (Length var36)))
(assert (= 54 (Length var37)))
(assert (= 5 (Length var38)))
(assert (= 50 (Length var39)))
(assert (= 29 (Length var40)))
(assert (= 34 (Length var41)))
(assert (= 63 (Length var42)))
(assert (= 88 (Length var43)))
(assert (= 59 (Length var44)))
(assert (= 26 (Length var45)))
(assert (= 12 (Length var46)))
(assert (= 52 (Length var47)))
(assert (= 92 (Length var48)))
(assert (= 2 (Length var49)))
(assert (= 37 (Length var50)))
(assert (= 12 (Length var51)))
(assert (= 14 (Length var52)))
(assert (= 71 (Length var53)))
(assert (= 84 (Length var54)))
(assert (= 24 (Length var55)))
(assert (= 1 (Length var56)))
(assert (= 9 (Length var57)))
(assert (= 75 (Length var58)))
(assert (= 34 (Length var59)))
(assert (= 46 (Length var60)))
(assert (= 25 (Length var61)))
(assert (= 76 (Length var62)))
(assert (= 72 (Length var63)))
(assert (= 94 (Length var64)))
(assert (= 80 (Length var65)))
(assert (= 51 (Length var66)))
(assert (= 73 (Length var67)))
(assert (= 96 (Length var68)))
(assert (= 16 (Length var69)))
(assert (= 8 (Length var70)))
(assert (= 63 (Length var71)))
(assert (= 55 (Length var72)))
(assert (= 61 (Length var73)))
(assert (= 5 (Length var74)))
(assert (= 22 (Length var75)))
(assert (= 40 (Length var76)))
(assert (= 33 (Length var77)))
(assert (= 92 (Length var78)))
(assert (= 43 (Length var79)))
(assert (= 33 (Length var80)))
(assert (= 46 (Length var81)))
(assert (= 34 (Length var82)))
(assert (= 50 (Length var83)))
(assert (= 77 (Length var84)))
(assert (= 87 (Length var85)))
(assert (= 45 (Length var86)))
(assert (= 79 (Length var87)))
(assert (= 32 (Length var88)))
(assert (= 78 (Length var89)))
(assert (= 17 (Length var90)))
(assert (= 36 (Length var91)))
(assert (= 28 (Length var92)))
(assert (= 95 (Length var93)))
(assert (= 43 (Length var94)))
(assert (= 33 (Length var95)))
(assert (= 84 (Length var96)))
(assert (= 39 (Length var97)))
(assert (= 32 (Length var98)))
(assert (= 25 (Length var99)))
(assert (= 97 (Length var100)))
(assert (= 27 (Length var101)))
(assert (= 71 (Length var102)))
(assert (= 8 (Length var103)))
(assert (= 59 (Length var104)))
(assert (= 5 (Length var105)))
(assert (= 6 (Length var106)))
(assert (= 100 (Length var107)))
(assert (= 10 (Length var108)))
(assert (= 98 (Length var109)))
(assert (= 58 (Length (Concat var36 var1))))
(assert (= 110 (Length (Concat var30 var59))))
(assert (= 40 (Length (Concat var35 var8))))
(assert (= 84 (Length (Concat var4 var44))))
(assert (= 96 (Length (Concat var53 var99))))
(assert (= 163 (Length (Concat var87 var96))))
(assert (= 116 (Length (Concat var89 var23))))
(assert (= 82 (Length (Concat var40 var18))))
(assert (= 65 (Length (Concat var49 var42))))
(assert (= 93 (Length (Concat var104 var82))))
(assert (= 166 (Length (Concat var63 var64))))
(check-sat)